!File created by the GAMESS Input Deck Generator Plugin for Avogadro
 $BASIS GBASIS=STO NGAUSS=3 $END
 $CONTRL SCFTYP=UHF RUNTYP=SADPOINT NZVAR=1 mult=1  ICHARG=1 $END
 $STATPT hssend=.t. OPTTOL=0.0005 NSTEP=50 $END
 $STATPT HESS=calc ihrep=5 $END
 $FORCE nvib=2 $END
 $ZMAT DLC=.t. auto=.t. nonvdw(1)=1,16,2,16 $END
!$ZMAT IFZMAT(1)=1,2,2,3 fvalue(1)=2.00,2.00 $END

 $DATA 
Title
C1
C     6.0    -2.57512999     3.69497991    -0.09549000
C     6.0    -3.68326998     2.60359001    -0.08800000
C     6.0    -2.90175009     1.20669007    -0.08026000
H     1.0    -4.25445986     2.32534003    -1.02405000
H     1.0    -4.21898985     2.37571001     0.88151002
C     6.0    -1.42014003     1.41359007    -0.14149000
C     6.0    -1.19052994     2.89180994    -0.07995000
H     1.0    -1.00370002     0.98396003    -1.05953991
H     1.0    -0.91752005     0.90995002     0.69215000
H     1.0    -2.33508015     4.23728037     0.86757004
H     1.0    -2.29211020     4.25219011    -1.03836000
H     1.0    -0.55675995     3.20866990    -0.92017001
H     1.0    -0.61891001     3.14555001     0.82257998
H     1.0    -3.22502995     0.59255004    -0.93226999
H     1.0    -3.16908002     0.62395000     0.81141996
Br    35.0    -4.42623997     4.46580029    -0.15448999
 $END
