!File created by the GAMESS Input Deck Generator Plugin for Avogadro
 $BASIS GBASIS=STO NGAUSS=3 $END
 $CONTRL SCFTYP=RHF RUNTYP=IRC $END
 $STATPT HESS=READ ihrep=5 $END
 $irc npoint=100 saddle=.t. tsengy=.t. forwrd=.f. opttol=0.0005 stride=0.1 $end $FORCE nvib=2 $END

 $DATA 
Title
C1
C     6.0    -0.95369440     1.79177070     0.41096494
C     6.0     0.28477564     1.05902576    -0.16798571
C     6.0    -2.17809105     1.16498637    -0.30694196
H     1.0    -0.89105761     2.86453629     0.25018969
H     1.0    -1.01743710     1.61524785     1.48073447
C     6.0    -1.68816233    -0.22106060    -0.74991232
H     1.0    -2.45061207     1.75043023    -1.18495178
H     1.0    -3.04748869     1.11195970     0.34343338
C     6.0    -0.28485692    -0.25141639    -0.72204274
H     1.0     1.07388914     0.90339738     0.56352365
H     1.0     0.70753247     1.60423481    -1.01204288
H     1.0    -2.24540544    -0.76681060    -1.49746132
H     1.0     0.32125986    -0.91119206    -1.33856201
B     5.0    -1.22666657    -1.27539170     0.55621803
H     1.0    -0.03449197    -1.30740488     0.65815514
H     1.0    -1.62810814    -0.78854537     1.52000105
H     1.0    -1.56436431    -2.32886338     0.23233138
 $END

 $HESS
ENERGY IS     -217.7512571618 E(NUC) IS      238.8695593914
 1  1 6.26105578E-01 1.44178385E-02-1.31593476E-02-2.24975659E-01 7.36619229E-02
 1  2 5.76160851E-02-2.23264771E-01-6.26893100E-02-6.94845799E-02-7.20943444E-02
 1  3-2.13792070E-02 4.17715750E-03-7.10569431E-02-4.38825241E-03 2.41710280E-02
 1  4 5.51095682E-03-9.03665031E-03 1.56605214E-03-4.17043848E-03-6.15139123E-03
 1  5-3.65598095E-04-1.78185687E-02-1.37686550E-02-2.12992317E-02 1.39928617E-02
 1  6 6.73490361E-03-1.19676535E-04-1.54374681E-02 1.24183897E-02 1.65282659E-02
 1  7-8.10916087E-03 9.69341582E-03 1.85058447E-03-2.65919708E-03 2.48856074E-03
 1  8 8.52987516E-04-3.36487066E-03-2.60296844E-03-1.18906500E-03-2.29139646E-03
 1  9 3.40770567E-05-4.87997961E-04-1.22345083E-04 1.08979311E-03-1.29412442E-03
 1 10 2.02277963E-05-4.16006695E-04 2.77144177E-04-2.64815366E-04-1.06403610E-04
 1 11 3.60116975E-04
 2  1 1.44178385E-02 8.79215885E-01-2.97839258E-02 6.44801676E-02-1.52605317E-01
 2  2-2.81570569E-02-5.37883657E-02-1.41214275E-01-2.84267113E-02-2.32973210E-02
 2  3-4.52992625E-01 6.24259728E-02-4.06094563E-03-9.19702996E-02 6.62244912E-02
 2  4-2.60807790E-02-2.55641165E-02-2.60322788E-02 1.75024826E-02 1.15495314E-02
 2  5 8.42197596E-03 1.13403469E-03 4.84494189E-04-1.20488250E-03 2.48993649E-02
 2  6-3.08190585E-02-2.45943802E-02 1.17592836E-03-2.02640397E-04-2.84116507E-03
 2  7-1.61804353E-02 1.29743311E-02 6.16795818E-03 4.15427525E-03-4.32524750E-03
 2  8-4.73761373E-04-4.05848174E-03-3.05938540E-03-8.34588749E-04-3.44754145E-04
 2  9-9.72542361E-04-4.54380323E-04-7.12574246E-05 3.95333157E-04 1.73336926E-04
 2 10-7.22490980E-05-1.08461996E-03-5.95812411E-04 1.90600776E-04 1.90575580E-04
 2 11-1.48522963E-05
 3  1-1.31593476E-02-2.97839258E-02 8.51872651E-01 5.48262234E-02-2.70941730E-02
 3  2-1.48627975E-01-6.53128858E-02-2.84204942E-02-1.61927599E-01 4.41840003E-03
 3  3 6.16352153E-02-8.79660205E-02 2.22876848E-02 6.50034891E-02-4.53264893E-01
 3  4-6.31908371E-03-9.87859326E-03-6.52747367E-03-2.77491133E-02-2.16761807E-02
 3  5-1.21288926E-02 1.77874111E-02 1.19441371E-02 1.52087931E-02 7.78810929E-03
 3  6-1.16001619E-02-5.90635359E-03-1.92731828E-02 1.49110600E-02 1.56373466E-02
 3  7 2.53617572E-02-2.22338129E-02-8.66943095E-03 4.14454616E-04-1.32010935E-03
 3  8 1.14312953E-03-1.05631205E-03-1.31449337E-03 9.33359512E-04-2.12124760E-04
 3  9-5.16710478E-04 3.74504910E-04 1.15619880E-04 1.78168321E-04 1.83282372E-05
 3 10-8.60200136E-05 2.24769376E-04-8.60352836E-05 1.68397787E-04-5.82945594E-05
 3 11-8.37174753E-05
 4  1-2.24975659E-01 6.44801676E-02 5.48262234E-02 8.27535430E-01 3.08406787E-02
 4  2 5.14991143E-02-3.91935300E-02 7.69797557E-03 8.36926661E-03 3.73506722E-03
 4  3-4.67557753E-03-4.52487401E-04-4.16744725E-03 2.18133765E-03-1.64817299E-03
 4  4-2.14010802E-02-3.00881193E-02-1.51366924E-02-9.30936290E-05 1.22285381E-04
 4  5-9.02557632E-05-2.80158231E-03-1.36858832E-03-3.99021440E-03-1.40448368E-01
 4  6-5.33395729E-02-2.18636200E-02-2.74865822E-01 4.31137821E-02-1.90092907E-01
 4  7-1.30672180E-01-7.30199324E-02 1.06694900E-01-4.51356271E-03 3.35576378E-04
 4  8 3.25574304E-03 1.38250722E-02 1.85652409E-02 7.26816968E-03 5.04954183E-04
 4  9-2.85049933E-03 5.34287490E-04-2.04369086E-03-2.65660320E-03 1.23629226E-03
 4 10 2.63667661E-04 4.31820813E-04-5.90553954E-05-6.88175099E-04 2.30020475E-04
 4 11-3.50606958E-04
 5  1 7.36619229E-02-1.52605317E-01-2.70941730E-02 3.08406787E-02 6.62121379E-01
 5  2-7.60112665E-02-3.94061271E-03 7.39188017E-03 8.56397044E-03 3.54174396E-02
 5  3-9.49706428E-03-1.74440713E-02-7.98783870E-03 5.84348283E-03 4.05492673E-03
 5  4-1.21221321E-02 5.07053731E-03-5.09794116E-03-1.45257339E-04-1.50869590E-03
 5  5-4.40031669E-04-1.66962315E-03-2.49787605E-03-2.44167805E-03-6.88587007E-02
 5  6-2.42907332E-01-7.03407346E-02 4.09029774E-02-7.96904288E-02 3.87779975E-02
 5  7-7.47520414E-02-1.67655138E-01 1.48982710E-01 2.17642191E-03-4.58155836E-04
 5  8-2.38015864E-03-9.76419193E-03-5.81383641E-03-9.55292171E-04 4.17561838E-03
 5  9-1.13327093E-02 5.84604986E-04-6.26142626E-03-9.01468151E-03 2.90231162E-03
 5 10 3.51440442E-06 2.16006275E-03-1.25853693E-03-1.67647198E-03 3.93945760E-04
 5 11-4.02306543E-04
 6  1 5.76160851E-02-2.81570569E-02-1.48627975E-01 5.14991143E-02-7.60112665E-02
 6  2 8.28446273E-01-1.24276882E-02 8.92980902E-03 7.48418498E-03-6.31305222E-03
 6  3 3.44531486E-03 2.74368976E-03 3.72570516E-02-2.24754922E-02-7.30730346E-03
 6  4-1.23978220E-02-8.86505853E-03 1.29693234E-03-3.53618383E-04-6.65812043E-04
 6  5 1.67934938E-05-1.50627812E-03-2.59184315E-03-2.09205304E-03-3.12180556E-02
 6  6-7.43230021E-02-1.29751751E-01-1.91805036E-01 4.23928200E-02-2.55457687E-01
 6  7 1.11051778E-01 1.50525150E-01-3.01245258E-01-1.47595941E-03-4.46644263E-03
 6  8 4.20779405E-03-1.27969402E-02-1.04383933E-02-3.14130359E-04 8.66772144E-04
 6  9 1.47471533E-02 3.31593234E-03 7.41765309E-03 7.56423518E-03-1.43871736E-04
 6 10 7.14461411E-04-1.39809284E-04 4.78009796E-04 3.87164172E-03 5.29367277E-04
 6 11-3.04955170E-03
 7  1-2.23264771E-01-5.37883657E-02-6.53128858E-02-3.91935300E-02-3.94061271E-03
 7  2-1.24276882E-02 8.37745508E-01-4.94057218E-02-5.58420611E-02 1.13076557E-03
 7  3 3.06429183E-03-1.24005114E-03 8.91790307E-04 1.29735855E-03 2.28511541E-03
 7  4-1.31695240E-01 5.06495972E-02 6.54537629E-03-1.02210514E-01 4.88581483E-02
 7  5-6.91529973E-02-3.19724590E-01-1.73415761E-02 1.87517689E-01-2.80318200E-02
 7  6 3.93430505E-02 1.13739688E-02-2.75733153E-03 1.49597929E-03 3.38257875E-03
 7  7-9.20190708E-05 8.90631684E-06 6.43881551E-05 1.18905321E-02-1.85303679E-02
 7  8-4.50152590E-03-5.09577874E-03-9.15606072E-04-3.12064617E-03 1.39154953E-03
 7  9-4.62654485E-04-1.32319391E-03-1.07519389E-03-7.89472474E-04 1.62554864E-03
 7 10-1.50508069E-04 7.08389752E-04-3.62359549E-04 2.41294780E-04-2.51408933E-04
 7 11 4.88801191E-04
 8  1-6.26893100E-02-1.41214275E-01-2.84204942E-02 7.69797557E-03 7.39188017E-03
 8  2 8.92980902E-03-4.94057218E-02 6.81841832E-01-8.04368999E-02-3.38043810E-02
 8  3-6.67249149E-03-2.10278843E-02 8.57809723E-03 5.15935656E-03 4.92242441E-03
 8  4 6.88868258E-02-2.64930366E-01-6.34447537E-02 4.97261690E-02-1.79811476E-01
 8  5 1.63887073E-01-1.68308371E-02-7.30941101E-02 1.63269485E-02 1.25562753E-02
 8  6-2.63796431E-03 3.31973493E-03 1.81362861E-03-2.71532007E-03-2.50224037E-03
 8  7 2.46532838E-04-1.24808163E-03-3.36859306E-04 7.77363167E-03-6.76430928E-03
 8  8 3.06753301E-03-2.70353821E-03-2.72547617E-04-2.73390153E-03 7.31344246E-03
 8  9-1.42451323E-02 1.13309759E-03 6.61191885E-04-8.01418710E-04-1.26296823E-03
 8 10-4.20537600E-04 4.04229813E-04-2.18108633E-03 6.00603378E-04-3.89470911E-04
 8 11 7.60421024E-04
 9  1-6.94845799E-02-2.84267113E-02-1.61927599E-01 8.36926661E-03 8.56397044E-03
 9  2 7.48418498E-03-5.58420611E-02-8.04368999E-02 8.22353445E-01 6.96509437E-03
 9  3 3.33696870E-03 3.48154652E-03-3.70237693E-02-1.83812081E-02-1.11999720E-02
 9  4 7.73953432E-03-5.64725895E-02-1.14992699E-01-7.14359558E-02 1.66990736E-01
 9  5-3.22095144E-01 1.87483569E-01 1.66556853E-02-2.19484992E-01 2.52344516E-02
 9  6-1.20876986E-02-3.90137707E-04 1.11773668E-03-2.87014436E-03-1.94056567E-03
 9  7 4.10424789E-04-8.24002444E-04-7.12235686E-05 1.38617904E-02-1.64823591E-02
 9  8-2.42953166E-03 2.16893804E-03-3.72781896E-03 3.86137842E-03-2.12625803E-02
 9  9 1.58912571E-02 1.89941353E-03 1.09493599E-03 7.39239681E-03-5.81503767E-03
 9 10 1.36643545E-03 1.46067324E-04 1.96260598E-03-7.63537244E-04 7.32335384E-04
 9 11-6.95968959E-04
10  1-7.20943444E-02-2.32973210E-02 4.41840003E-03 3.73506722E-03 3.54174396E-02
10  2-6.31305222E-03 1.13076557E-03-3.38043810E-02 6.96509437E-03 7.23134413E-02
10  3 2.28606049E-02-4.28202198E-03 4.67717995E-04-2.49893583E-03-4.34943363E-04
10  4-5.18089702E-03-7.34261694E-04-3.18436709E-03 2.45887023E-03 7.70844001E-04
10  5 1.24370162E-03-7.40301388E-04-3.40471992E-04-7.72686837E-04-6.91980281E-03
10  6 2.27957695E-03 2.02215928E-03-9.35925326E-04 5.78578785E-04 8.59467326E-04
10  7 2.64196245E-03-7.95913868E-04-1.11390173E-03 9.81160460E-04-1.21464145E-03
10  8-2.82308410E-04 1.08243168E-03 1.03914630E-03 4.62871437E-04 9.13027698E-04
10  9-2.79603090E-05 1.24610711E-04-5.03537177E-06-4.88605700E-04 5.95939454E-04
10 10 7.11913321E-05 1.98958384E-04-1.11323434E-04 8.07856738E-05 5.74030765E-05
10 11-1.97523320E-04
11  1-2.13792070E-02-4.52992625E-01 6.16352153E-02-4.67557753E-03-9.49706428E-03
11  2 3.44531486E-03 3.06429183E-03-6.67249149E-03 3.33696870E-03 2.28606049E-02
11  3 4.67428717E-01-6.28988229E-02 7.18673380E-05-3.90238188E-04-5.72466724E-03
11  4-3.69030298E-04-2.43136349E-04-4.78821206E-04 1.16877692E-03 1.67658997E-03
11  5 6.73553271E-04-2.50096842E-04-1.62840983E-04-5.47944462E-05 7.62248033E-04
11  6-5.76287307E-04-4.68794498E-04 2.82778937E-04-2.48172702E-04-1.01257274E-04
11  7-1.35208121E-03 1.82862520E-03 7.01011584E-04 6.39016688E-05-1.66580248E-04
11  8-3.87358879E-05-1.65369717E-04-2.32274121E-04-2.87831102E-05-1.23756752E-05
11  9 3.65893164E-04 5.09687829E-05-1.29423893E-06 5.74671267E-05-2.36604373E-05
11 10-5.24972991E-05-1.26733769E-04 1.02742676E-05-1.68724849E-05-4.89195940E-05
11 11-3.48438913E-05
12  1 4.17715750E-03 6.24259728E-02-8.79660205E-02-4.52487401E-04-1.74440713E-02
12  2 2.74368976E-03-1.24005114E-03-2.10278843E-02 3.48154652E-03-4.28202198E-03
12  3-6.28988229E-02 8.32825744E-02 2.17453455E-03 4.57977198E-02 4.69027251E-04
12  4-2.25441320E-03-2.27597359E-03-2.15872837E-03 1.15670583E-03-2.23134805E-04
12  5 1.53047728E-03-3.88485156E-04-4.30622874E-04-4.85176584E-04 1.65780572E-03
12  6-2.36973580E-03-2.16097013E-03 2.97481733E-04-4.37856189E-04-3.74326501E-04
12  7-1.07145374E-03-2.88469272E-04 1.30834098E-03 4.25955719E-04-6.78807792E-04
12  8-7.88410855E-05-3.70955955E-04-5.57879710E-04-4.08342303E-05 4.63808319E-04
12  9 2.92884282E-04-1.20647116E-04-1.58066601E-04-1.73303420E-04 1.42792575E-04
12 10-1.23949371E-06 2.60958728E-04 1.71739229E-04-1.34254507E-04 2.89848086E-05
12 11 2.55477267E-04
13  1-7.10569431E-02-4.06094563E-03 2.22876848E-02-4.16744725E-03-7.98783870E-03
13  2 3.72570516E-02 8.91790307E-04 8.57809723E-03-3.70237693E-02 4.67717995E-04
13  3 7.18673380E-05 2.17453455E-03 7.88363297E-02 3.55793999E-03-2.41312681E-02
13  4-1.09480504E-03 1.06787560E-03-4.02401194E-04-4.32669181E-03-4.52240451E-03
13  5-2.93068579E-03 2.56705366E-03 1.26210408E-03 1.64808991E-04-2.07424083E-03
13  6-8.97413516E-04 2.59305284E-04 2.59818397E-03-1.44157200E-03-1.19130915E-04
13  7-4.01483298E-03 4.80913100E-03 2.32859932E-03 2.55676549E-04-5.37222809E-04
13  8 5.72623739E-05 3.24275731E-04 4.72274010E-04-2.45076263E-05 6.50485903E-04
13  9-4.68435805E-05-1.05855351E-04 6.11230035E-05-1.97649976E-04 3.16517569E-04
13 10 4.14931986E-05-1.47206890E-04-5.36163961E-05 4.07816417E-05 1.97848225E-05
13 11-5.45372513E-05
14  1-4.38825241E-03-9.19702996E-02 6.50034891E-02 2.18133765E-03 5.84348283E-03
14  2-2.24754922E-02 1.29735855E-03 5.15935656E-03-1.83812081E-02-2.49893583E-03
14  3-3.90238188E-04 4.57977198E-02 3.55793999E-03 8.45885879E-02-6.90874504E-02
14  4-3.86810277E-04 2.33269056E-05 2.85524167E-04-1.73388828E-03-1.39747826E-03
14  5-9.82810307E-04 9.17937025E-04 1.01400184E-03 4.92939273E-04 6.43776149E-04
14  6 4.50756726E-04-3.52973781E-04-1.08215953E-03 1.19422997E-03 2.99281147E-04
14  7 2.11400165E-03-2.00939108E-03-1.01504875E-03-3.50796020E-06-2.20177985E-04
14  8 1.42389045E-04-7.02819244E-05-3.37642031E-04 1.34291574E-04 1.08614060E-04
14  9-6.67220858E-04-2.41294316E-04-1.69463145E-04-1.62882342E-04 1.41809584E-04
14 10-4.36342632E-04-1.15441459E-03 1.08567302E-05-5.13570138E-05 3.60366901E-05
14 11 2.27799938E-04
15  1 2.41710280E-02 6.62244912E-02-4.53264893E-01-1.64817299E-03 4.05492673E-03
15  2-7.30730346E-03 2.28511541E-03 4.92242441E-03-1.11999720E-02-4.34943363E-04
15  3-5.72466724E-03 4.69027251E-04-2.41312681E-02-6.90874504E-02 4.67056839E-01
15  4 3.91761508E-04-1.48168436E-04 1.57694056E-04-1.11794712E-03-1.50064374E-03
15  5-8.08908018E-05 1.42255076E-03 5.17937584E-04 1.90296647E-03-3.53090290E-04
15  6 1.51033615E-04-2.89477928E-04-1.31329336E-03 4.83733586E-04 1.74842433E-03
15  7 4.18586112E-04-1.02783849E-03 2.89102580E-04-5.20277979E-05-4.22457505E-05
15  8 5.64747147E-05 7.00670543E-05-3.54620085E-05 7.60770648E-05 3.09056952E-04
15  9 3.42310466E-04-1.67132315E-04-8.11344606E-05-9.71457549E-05 5.48192527E-05
15 10 1.36815821E-04 9.01503754E-04 2.88182341E-04-7.30390302E-05 6.51903565E-05
15 11 2.10190624E-04
16  1 5.51095682E-03-2.60807790E-02-6.31908371E-03-2.14010802E-02-1.21221321E-02
16  2-1.23978220E-02-1.31695240E-01 6.88868258E-02 7.73953432E-03-5.18089702E-03
16  3-3.69030298E-04-2.25441320E-03-1.09480504E-03-3.86810277E-04 3.91761508E-04
16  4 8.97600603E-01-1.72355203E-02 2.37702600E-01-2.88641550E-03 1.31327863E-02
16  5 6.79519376E-03-3.43558000E-03 3.36683799E-02 5.76767054E-03-4.76034461E-01
16  6-1.31716968E-02 6.48870153E-03-5.52198681E-04-8.13806721E-05 3.55097261E-04
16  7 4.01470459E-05 1.10901817E-03 3.42402997E-04-1.75237671E-01-9.92249377E-02
16  8-1.63331933E-01-6.37890145E-03-2.94212940E-03-1.06150928E-02-1.08151297E-01
16  9 4.54400571E-02-5.78009503E-02 8.85805854E-03 2.76043617E-02-3.49334232E-02
16 10 1.05101515E-02-1.03039904E-02 1.20680223E-02 9.52823935E-03-7.92289641E-03
16 11 1.00014715E-02
17  1-9.03665031E-03-2.55641165E-02-9.87859326E-03-3.00881193E-02 5.07053731E-03
17  2-8.86505853E-03 5.06495972E-02-2.64930366E-01-5.64725895E-02-7.34261694E-04
17  3-2.43136349E-04-2.27597359E-03 1.06787560E-03 2.33269056E-05-1.48168436E-04
17  4-1.72355203E-02 6.34757717E-01 2.57498452E-01 7.38308976E-03-1.91348967E-02
17  5-1.14041656E-02-8.57486818E-04 3.81749722E-03 2.35354891E-03 7.36137611E-02
17  6-1.13807548E-01-1.66304658E-02 5.90525303E-04-5.63900856E-03-2.07820482E-03
17  7-2.50300683E-04-1.45684692E-03-1.84402365E-03-9.45922814E-02-1.64868185E-01
17  8-1.65915993E-01 2.48341163E-02 4.12643016E-03 4.00041151E-03-4.04743768E-02
17  9-4.21408740E-02 1.12805391E-02 1.25109902E-02 9.69646611E-03-2.35793272E-02
17 10 3.57029057E-03-2.90406141E-03 3.04701597E-03 1.90481145E-02-1.68028916E-02
17 11 2.09118288E-02
18  1 1.56605214E-03-2.60322788E-02-6.52747367E-03-1.51366924E-02-5.09794116E-03
18  2 1.29693234E-03 6.54537629E-03-6.34447537E-02-1.14992699E-01-3.18436709E-03
18  3-4.78821206E-04-2.15872837E-03-4.02401194E-04 2.85524167E-04 1.57694056E-04
18  4 2.37702600E-01 2.57498452E-01 5.18200620E-01-9.85823653E-03 2.92481645E-02
18  5 1.43079169E-02 8.03922191E-04-2.13063943E-02-2.56958763E-03-8.56959603E-02
18  6-2.15426525E-02-1.01454256E-01-1.24790438E-03-3.02882852E-03 5.86809346E-04
18  7-3.69742484E-04 5.30399372E-05 1.41190081E-04-1.48346680E-01-1.58918335E-01
18  8-2.52208088E-01 1.79611587E-02-1.25674924E-04 1.47425204E-02 4.09251539E-02
18  9 1.28780355E-02-5.67076345E-02-1.54265180E-02-2.11677201E-02 1.68501104E-02
18 10-1.97476332E-02 1.75679752E-02-2.30159118E-02-6.08687437E-03 3.61250404E-03
18 11-6.64850515E-03
19  1-4.17043848E-03 1.75024826E-02-2.77491133E-02-9.30936290E-05-1.45257339E-04
19  2-3.53618383E-04-1.02210514E-01 4.97261690E-02-7.14359558E-02 2.45887023E-03
19  3 1.16877692E-03 1.15670583E-03-4.32669181E-03-1.73388828E-03-1.11794712E-03
19  4-2.88641550E-03 7.38308976E-03-9.85823653E-03 9.68044896E-02-5.22112617E-02
19  5 7.79152303E-02 1.34797947E-02-2.13808510E-02 3.02346947E-02 8.96873589E-04
19  6 1.39704772E-04-5.97541149E-04-3.17500597E-04 1.08473845E-05 3.37744545E-04
19  7-5.88379972E-05 8.42477467E-06 1.42825142E-04 4.59546013E-04-6.81151972E-04
19  8 2.56085849E-04 1.09814604E-04-1.71718018E-04 3.77448261E-04-3.57257912E-04
19  9 9.01838328E-05 1.12558658E-03 9.19207736E-05 3.94824931E-04-3.61214709E-04
19 10 2.23467959E-04-2.26586218E-04 5.40970757E-05-1.03999550E-04 1.26122986E-04
19 11-1.26846981E-04
20  1-6.15139123E-03 1.15495314E-02-2.16761807E-02 1.22285381E-04-1.50869590E-03
20  2-6.65812043E-04 4.88581483E-02-1.79811476E-01 1.66990736E-01 7.70844001E-04
20  3 1.67658997E-03-2.23134805E-04-4.52240451E-03-1.39747826E-03-1.50064374E-03
20  4 1.31327863E-02-1.91348967E-02 2.92481645E-02-5.22112617E-02 1.89202762E-01
20  5-1.71381347E-01 2.24842035E-03 1.15055596E-03-1.91653247E-03-5.99360096E-03
20  6-7.80812693E-04 3.01219857E-04-2.97755282E-04 4.72556534E-04 3.77261785E-04
20  7 2.96635055E-06 2.06756483E-04 1.64090237E-04-9.52956034E-04 2.15109753E-03
20  8 3.06710532E-04-6.77479119E-05 7.33995084E-04-3.78928796E-04 5.74198273E-03
20  9-2.32956634E-03-1.00607039E-03-4.17156184E-04-2.28025562E-03 1.94890309E-03
20 10-4.51157531E-04 2.93347671E-04-6.31957750E-04 1.87960844E-04-1.94116877E-04
20 11 4.36298997E-05
21  1-3.65598095E-04 8.42197596E-03-1.21288926E-02-9.02557632E-05-4.40031669E-04
21  2 1.67934938E-05-6.91529973E-02 1.63887073E-01-3.22095144E-01 1.24370162E-03
21  3 6.73553271E-04 1.53047728E-03-2.93068579E-03-9.82810307E-04-8.08908018E-05
21  4 6.79519376E-03-1.14041656E-02 1.43079169E-02 7.79152303E-02-1.71381347E-01
21  5 3.31786732E-01-1.27032427E-02 1.32228969E-02-1.49320650E-02-2.90029047E-03
21  6-1.03207231E-03-2.99906260E-04-1.29413582E-04 2.00758251E-04 1.69869918E-04
21  7-1.78092397E-04 1.37383701E-04 7.11970433E-05-2.08569903E-04 3.08020543E-04
21  8 7.70235143E-04 6.12296202E-05 5.29582505E-04-2.52104099E-04 3.46157345E-03
21  9-1.22496161E-03-2.41190602E-04-3.39685819E-04-1.27713726E-03 1.33974051E-03
21 10-3.71753610E-04 2.97448650E-04-9.16205659E-05-1.06236233E-04 6.38285048E-05
21 11 1.28909192E-04
22  1-1.78185687E-02 1.13403469E-03 1.77874111E-02-2.80158231E-03-1.66962315E-03
22  2-1.50627812E-03-3.19724590E-01-1.68308371E-02 1.87483569E-01-7.40301388E-04
22  3-2.50096842E-04-3.88485156E-04 2.56705366E-03 9.17937025E-04 1.42255076E-03
22  4-3.43558000E-03-8.57486818E-04 8.03922191E-04 1.34797947E-02 2.24842035E-03
22  5-1.27032427E-02 3.29277872E-01 1.64126773E-02-1.95078157E-01-1.78185673E-03
22  6-6.01436359E-04 8.27281379E-04-4.74567374E-04 3.51170566E-04 4.38235196E-04
22  7-1.98378714E-04 2.97586716E-04 9.28391724E-05 1.71878292E-04-1.64799615E-04
22  8 2.08220503E-04-1.35946814E-04 3.57260973E-04-1.51871910E-04 1.42303206E-03
22  9-1.01855877E-03 7.91832500E-04 6.49151589E-05-3.19948526E-04 2.96781849E-04
22 10 1.12970028E-04-5.44879117E-05-9.18385167E-05 1.39792283E-05 4.82269128E-05
22 11-2.32724077E-04
23  1-1.37686550E-02 4.84494189E-04 1.19441371E-02-1.36858832E-03-2.49787605E-03
23  2-2.59184315E-03-1.73415761E-02-7.30941101E-02 1.66556853E-02-3.40471992E-04
23  3-1.62840983E-04-4.30622874E-04 1.26210408E-03 1.01400184E-03 5.17937584E-04
23  4 3.36683799E-02 3.81749722E-03-2.13063943E-02-2.13808510E-02 1.15055596E-03
23  5 1.32228969E-02 1.64126773E-02 7.20779723E-02-1.45762957E-02 2.66678010E-03
23  6-5.86401405E-03-5.09751980E-03-2.61721389E-04 5.05492829E-04 4.31133371E-04
23  7 4.55293233E-05 3.41472417E-04 1.50223586E-04-1.10351611E-04 1.20927637E-04
23  8 2.05713635E-04 1.74851978E-03-1.52793471E-04 1.45279045E-03-5.85916968E-04
23  9 2.26232615E-03-9.95839397E-04-3.07871466E-04-5.87279736E-05 1.96953817E-04
23 10-1.38553585E-04-1.43150344E-05 1.36697071E-04-1.99495688E-04 6.98300909E-05
23 11 8.43467213E-05
24  1-2.12992317E-02-1.20488250E-03 1.52087931E-02-3.99021440E-03-2.44167805E-03
24  2-2.09205304E-03 1.87517689E-01 1.63269485E-02-2.19484992E-01-7.72686837E-04
24  3-5.47944462E-05-4.85176584E-04 1.64808991E-04 4.92939273E-04 1.90296647E-03
24  4 5.76767054E-03 2.35354891E-03-2.56958763E-03 3.02346947E-02-1.91653247E-03
24  5-1.49320650E-02-1.95078157E-01-1.45762957E-02 2.21596222E-01-7.13118518E-04
24  6-1.15920945E-03-7.17002405E-04-4.51233405E-04 5.11964953E-04 6.11917331E-04
24  7-3.69041094E-04 3.99313314E-04 1.16048504E-04-3.30728791E-04 1.61577582E-04
24  8 3.27317810E-07 1.27674683E-04 1.28647861E-04 3.29040204E-04-6.21373886E-04
24  9 8.68141447E-04 2.21341516E-04-1.41342446E-04 2.11497905E-05 2.36178276E-04
24 10-1.97405628E-05 1.47176034E-05 1.37191362E-04-2.57785946E-05 7.44686404E-05
24 11-7.90136107E-05
25  1 1.39928617E-02 2.48993649E-02 7.78810929E-03-1.40448368E-01-6.88587007E-02
25  2-3.12180556E-02-2.80318200E-02 1.25562753E-02 2.52344516E-02-6.91980281E-03
25  3 7.62248033E-04 1.65780572E-03-2.07424083E-03 6.43776149E-04-3.53090290E-04
25  4-4.76034461E-01 7.36137611E-02-8.56959603E-02 8.96873589E-04-5.99360096E-03
25  5-2.90029047E-03-1.78185673E-03 2.66678010E-03-7.13118518E-04 8.78067912E-01
25  6-6.14988867E-02-1.44994867E-01-7.68227453E-03-3.12736140E-02-5.29013969E-03
25  7-5.67908133E-03-1.39583392E-02-6.60565067E-03-1.79968526E-02-6.86310118E-03
25  8 2.07094795E-02-2.01890799E-01 1.40633621E-01 1.32264799E-01 6.27034895E-02
25  9-5.98160830E-02 7.84714810E-02-4.03547634E-02-1.96930544E-02 2.76313392E-02
25 10-1.41413676E-02 4.45103702E-03-1.04330276E-02-1.26245238E-02 7.72857232E-03
25 11-5.55257384E-03
26  1 6.73490361E-03-3.08190585E-02-1.16001619E-02-5.33395729E-02-2.42907332E-01
26  2-7.43230021E-02 3.93430505E-02-2.63796431E-03-1.20876986E-02 2.27957695E-03
26  3-5.76287307E-04-2.36973580E-03-8.97413516E-04 4.50756726E-04 1.51033615E-04
26  4-1.31716968E-02-1.13807548E-01-2.15426525E-02 1.39704772E-04-7.80812693E-04
26  5-1.03207231E-03-6.01436359E-04-5.86401405E-03-1.15920945E-03-6.14988867E-02
26  6 6.39183347E-01 2.95224187E-01 1.91410483E-03 7.61213491E-03 5.82364452E-03
26  7-7.23657419E-03-1.66959205E-02-9.07549296E-03-2.10788375E-02 2.38872806E-03
26  8 8.70912792E-03 1.30477830E-01-2.14862472E-01-1.52332430E-01-6.47866375E-02
26  9-2.20672050E-02-2.46776281E-02 2.18758669E-02 6.67291406E-04-1.08489736E-02
26 10 1.55135268E-02 3.28375501E-03 8.20408141E-05 4.33201873E-03-2.56780515E-03
26 11 1.10591085E-02
27  1-1.19676535E-04-2.45943802E-02-5.90635359E-03-2.18636200E-02-7.03407346E-02
27  2-1.29751751E-01 1.13739688E-02 3.31973493E-03-3.90137707E-04 2.02215928E-03
27  3-4.68794498E-04-2.16097013E-03 2.59305284E-04-3.52973781E-04-2.89477928E-04
27  4 6.48870153E-03-1.66304658E-02-1.01454256E-01-5.97541149E-04 3.01219857E-04
27  5-2.99906260E-04 8.27281379E-04-5.09751980E-03-7.17002405E-04-1.44994867E-01
27  6 2.95224187E-01 4.30886821E-01-4.30152570E-03-2.78287412E-02-5.25730022E-03
27  7 1.09746453E-02 2.93813703E-02 1.35138671E-02-3.01539831E-02-1.55144854E-03
27  8 1.15071447E-02 1.31635565E-01-1.58324046E-01-1.85828139E-01 8.64774036E-02
27  9-2.25575388E-02-1.90097359E-02-2.23753966E-02-1.02713135E-02-5.78031366E-04
27 10-9.88566875E-03 9.67694642E-03-5.53268631E-03-1.57669608E-02 1.14930859E-04
27 11 1.26778439E-03
28  1-1.54374681E-02 1.17592836E-03-1.92731828E-02-2.74865822E-01 4.09029774E-02
28  2-1.91805036E-01-2.75733153E-03 1.81362861E-03 1.11773668E-03-9.35925326E-04
28  3 2.82778937E-04 2.97481733E-04 2.59818397E-03-1.08215953E-03-1.31329336E-03
28  4-5.52198681E-04 5.90525303E-04-1.24790438E-03-3.17500597E-04-2.97755282E-04
28  5-1.29413582E-04-4.74567374E-04-2.61721389E-04-4.51233405E-04-7.68227453E-03
28  6 1.91410483E-03-4.30152570E-03 2.82216633E-01-4.23131890E-02 1.99621096E-01
28  7 1.65166377E-02-3.35934113E-03 1.72940595E-02-2.96825559E-04-4.65041052E-04
28  8 2.99474285E-04 3.82492065E-04-3.62028902E-06 1.13237938E-04 7.69896777E-04
28  9 5.21459761E-04-2.15582061E-04 5.27924059E-04 3.64978411E-04 1.62904265E-05
28 10 1.10646337E-04 1.48174801E-04-4.28294715E-05 1.97640013E-04 6.81354971E-05
28 11 2.06677415E-05
29  1 1.24183897E-02-2.02640397E-04 1.49110600E-02 4.31137821E-02-7.96904288E-02
29  2 4.23928200E-02 1.49597929E-03-2.71532007E-03-2.87014436E-03 5.78578785E-04
29  3-2.48172702E-04-4.37856189E-04-1.44157200E-03 1.19422997E-03 4.83733586E-04
29  4-8.13806721E-05-5.63900856E-03-3.02882852E-03 1.08473845E-05 4.72556534E-04
29  5 2.00758251E-04 3.51170566E-04 5.05492829E-04 5.11964953E-04-3.12736140E-02
29  6 7.61213491E-03-2.78287412E-02-4.23131890E-02 7.84559522E-02-4.07213150E-02
29  7 1.89213105E-02-4.21924578E-04 1.37363528E-02-1.45204790E-03-3.06310415E-04
29  8 1.32388594E-03 2.08349945E-05 1.75244119E-04 9.58818848E-04 6.59379224E-04
29  9 1.06475737E-03 5.60516513E-04-9.26253436E-04 1.38183805E-05-6.49381170E-04
29 10-1.05427887E-04-2.54024830E-04 2.83195708E-04 2.31405532E-05-1.63974034E-05
29 11 1.73044321E-04
30  1 1.65282659E-02-2.84116507E-03 1.56373466E-02-1.90092907E-01 3.87779975E-02
30  2-2.55457687E-01 3.38257875E-03-2.50224037E-03-1.94056567E-03 8.59467326E-04
30  3-1.01257274E-04-3.74326501E-04-1.19130915E-04 2.99281147E-04 1.74842433E-03
30  4 3.55097261E-04-2.07820482E-03 5.86809346E-04 3.37744545E-04 3.77261785E-04
30  5 1.69869918E-04 4.38235196E-04 4.31133371E-04 6.11917331E-04-5.29013969E-03
30  6 5.82364452E-03-5.25730022E-03 1.99621096E-01-4.07213150E-02 2.59339131E-01
30  7-2.62775480E-02 7.00854329E-04-1.58583147E-02-4.18870329E-05 1.22741216E-04
30  8 2.71212781E-04 4.21259046E-04 1.25733450E-04 2.50154225E-04-1.33681605E-03
30  9 1.00381906E-03 1.00118313E-04 9.33021483E-04 1.01856115E-03-5.04906274E-05
30 10 4.56050206E-05-3.73342576E-04 1.43803741E-04 2.36159335E-04-6.35089358E-05
30 11 7.99515715E-05
31  1-8.10916087E-03-1.61804353E-02 2.53617572E-02-1.30672180E-01-7.47520414E-02
31  2 1.11051778E-01-9.20190708E-05 2.46532838E-04 4.10424789E-04 2.64196245E-03
31  3-1.35208121E-03-1.07145374E-03-4.01483298E-03 2.11400165E-03 4.18586112E-04
31  4 4.01470459E-05-2.50300683E-04-3.69742484E-04-5.88379972E-05 2.96635055E-06
31  5-1.78092397E-04-1.98378714E-04 4.55293233E-05-3.69041094E-04-5.67908133E-03
31  6-7.23657419E-03 1.09746453E-02 1.65166377E-02 1.89213105E-02-2.62775480E-02
31  7 1.28906273E-01 7.75267414E-02-1.18502323E-01 5.53909073E-05 1.94472279E-04
31  8-3.89828781E-04 6.75686756E-04 5.50050033E-04-2.44702532E-04-2.44864425E-04
31  9-5.06168380E-05-6.22811243E-04 3.20160069E-04 4.18847003E-04-3.82301332E-04
31 10-1.46164343E-05-1.55503141E-04-2.39077197E-05-7.22147986E-05-4.28679892E-05
31 11 2.14639743E-04
32  1 9.69341582E-03 1.29743311E-02-2.22338129E-02-7.30199324E-02-1.67655138E-01
32  2 1.50525150E-01 8.90631684E-06-1.24808163E-03-8.24002444E-04-7.95913868E-04
32  3 1.82862520E-03-2.88469272E-04 4.80913100E-03-2.00939108E-03-1.02783849E-03
32  4 1.10901817E-03-1.45684692E-03 5.30399372E-05 8.42477467E-06 2.06756483E-04
32  5 1.37383701E-04 2.97586716E-04 3.41472417E-04 3.99313314E-04-1.39583392E-02
32  6-1.66959205E-02 2.93813703E-02-3.35934113E-03-4.21924578E-04 7.00854329E-04
32  7 7.75267414E-02 1.75424621E-01-1.55793979E-01-1.33729372E-04 8.95515799E-04
32  8-4.87584518E-04 1.24141714E-03 1.85818984E-03 7.63979729E-05-1.35144133E-04
32  9-2.66897291E-03-1.06970138E-03-1.96779327E-03-1.02204546E-03-5.17139267E-04
32 10-3.16383865E-04-1.98197460E-04 6.11004868E-05-1.00802592E-03-1.53066257E-04
32 11 9.07886413E-04
33  1 1.85058447E-03 6.16795818E-03-8.66943095E-03 1.06694900E-01 1.48982710E-01
33  2-3.01245258E-01 6.43881551E-05-3.36859306E-04-7.12235686E-05-1.11390173E-03
33  3 7.01011584E-04 1.30834098E-03 2.32859932E-03-1.01504875E-03 2.89102580E-04
33  4 3.42402997E-04-1.84402365E-03 1.41190081E-04 1.42825142E-04 1.64090237E-04
33  5 7.11970433E-05 9.28391724E-05 1.50223586E-04 1.16048504E-04-6.60565067E-03
33  6-9.07549296E-03 1.35138671E-02 1.72940595E-02 1.37363528E-02-1.58583147E-02
33  7-1.18502323E-01-1.55793979E-01 3.09270115E-01-1.52995937E-04 7.49820206E-04
33  8-3.91985339E-04 2.23949667E-04 3.07928153E-04 6.84000350E-04-7.32415977E-04
33  9-1.69930061E-03-2.30761143E-04-1.05331786E-03-7.67612846E-04 1.86411683E-04
33 10-2.67972534E-04-2.48345897E-04 1.41476756E-04-6.06096743E-04-1.79286721E-04
33 11 7.45204546E-04
34  1-2.65919708E-03 4.15427525E-03 4.14454616E-04-4.51356271E-03 2.17642191E-03
34  2-1.47595941E-03 1.18905321E-02 7.77363167E-03 1.38617904E-02 9.81160460E-04
34  3 6.39016688E-05 4.25955719E-04 2.55676549E-04-3.50796020E-06-5.20277979E-05
34  4-1.75237671E-01-9.45922814E-02-1.48346680E-01 4.59546013E-04-9.52956034E-04
34  5-2.08569903E-04 1.71878292E-04-1.10351611E-04-3.30728791E-04-1.79968526E-02
34  6-2.10788375E-02-3.01539831E-02-2.96825559E-04-1.45204790E-03-4.18870329E-05
34  7 5.53909073E-05-1.33729372E-04-1.52995937E-04 1.78333320E-01 1.06549703E-01
34  8 1.57512121E-01 2.68933061E-03-6.79473029E-04 2.17605760E-03 8.24278293E-03
34  9 2.36908229E-04 4.40518776E-03-1.93390707E-03-2.88373639E-03 3.34071259E-03
34 10-1.35838298E-04 3.32782960E-04-3.27879082E-04-3.05833571E-04 5.99387028E-04
34 11-1.04544775E-03